36 42 14 92 15 47 69 21 73 76 78 81 6 57 41 10 20 68 74 24 4 60 48 100 93 89 77 80 
59 39 72 95 83 98 82 27 30 88 61 38 86 9 49 66 97 96 13 54 35 1 17 58 25 
5 45 33 65 11 12 75 23 7 18 85 84 53 3 46 43 56 55 70 91 
63 28 2 52 64 71 67 40 79 22 50 34 26 37 32 
62 31 19 16 44 99 51 8 94 
29 87 90 

